<instance format="XCSP3" type="CSP">
  <variables>
    <array id="x" size="[3][3]"> 1..3 </array>
  </variables>
  <constraints>
    <allDifferent>  
      <matrix> x[][] </matrix>
    </allDifferent>
  </constraints>
</instance>
